\ENCODING=ISO-8859-1
\Problem name: IloCplex

Maximize
 obj: 4950 u1 + 1000 v1 + 443 v2 + 994 v3 + 858 v4 + 2345 v5 + 2344 v6 + 998 v7
      + 1234 v8 + 3945 v9 + 4000 v10 + 1523 u2 + 444 u3 + 3204 u4 + 123 u5
      + 994 u6 + 2345 u7 + 999 u8 + 234 u9 + 3345 u10 + x21
Subject To
 c1:   u1 + v1 <= 1
 c2:   u1 + v2 <= 3
 c3:   u1 + v3 <= 9
 c4:   u1 + v4 <= 1
 c5:   u1 + v5 <= 2
 c6:   u1 + v6 <= 10
 c7:   u1 + v7 <= 9
 c8:   u1 + v8 <= 4
 c9:   u1 + v9 <= 9
 c10:  u1 + v10 <= 2
 c11:  v1 + u2 <= 1
 c12:  v2 + u2 <= 2
 c13:  v3 + u2 <= 3
 c14:  v4 + u2 <= 10
 c15:  v5 + u2 <= 3
 c16:  v6 + u2 <= 44
 c17:  v7 + u2 <= 23
 c18:  v8 + u2 <= 11
 c19:  v9 + u2 <= 4
 c20:  v10 + u2 <= 9
 c21:  v1 + u3 <= 3
 c22:  v2 + u3 <= 9
 c23:  v3 + u3 <= 1
 c24:  v4 + u3 <= 32
 c25:  v5 + u3 <= 12
 c26:  v6 + u3 <= 95
 c27:  v7 + u3 <= 31
 c28:  v8 + u3 <= 2
 c29:  v9 + u3 <= 33
 c30:  v10 + u3 <= 3
 c31:  v1 + u4 <= 95
 c32:  v2 + u4 <= 64
 c33:  v3 + u4 <= 81
 c34:  v4 + u4 <= 90
 c35:  v5 + u4 <= 43
 c36:  v6 + u4 <= 223
 c37:  v7 + u4 <= 44
 c38:  v8 + u4 <= 2
 c39:  v9 + u4 <= 32
 c40:  v10 + u4 <= 44
 c41:  v1 + u5 <= 9
 c42:  v2 + u5 <= 4
 c43:  v3 + u5 <= 32
 c44:  v4 + u5 <= 8
 c45:  v5 + u5 <= 9
 c46:  v6 + u5 <= 9
 c47:  v7 + u5 <= 3
 c48:  v8 + u5 <= 2
 c49:  v9 + u5 <= 3
 c50:  v10 + u5 <= 9
 c51:  v1 + u6 <= 4
 c52:  v2 + u6 <= 2
 c53:  v3 + u6 <= 1
 c54:  v4 + u6 <= 3
 c55:  v5 + u6 <= 44
 c56:  v6 + u6 <= 9
 c57:  v7 + u6 <= 10
 c58:  v8 + u6 <= 99
 c59:  v9 + u6 <= 312
 c60:  v10 + u6 <= 1
 c61:  v1 + u7 <= 8
 c62:  v2 + u7 <= 8
 c63:  v3 + u7 <= 8
 c64:  v4 + u7 <= 88
 c65:  v5 + u7 <= 9
 c66:  v6 + u7 <= 3
 c67:  v7 + u7 <= 4
 c68:  v8 + u7 <= 2
 c69:  v9 + u7 <= 12
 c70:  v10 + u7 <= 9
 c71:  v1 + u8 <= 2
 c72:  v2 + u8 <= 12
 c73:  v3 + u8 <= 34
 c74:  v4 + u8 <= 32
 c75:  v5 + u8 <= 98
 c76:  v6 + u8 <= 93
 c77:  v7 + u8 <= 11
 c78:  v8 + u8 <= 53
 c79:  v9 + u8 <= 2
 c80:  v10 + u8 <= 2
 c81:  v1 + u9 <= 3
 c82:  v2 + u9 <= 4
 c83:  v3 + u9 <= 1
 c84:  v4 + u9 <= 4
 c85:  v5 + u9 <= 5
 c86:  v6 + u9 <= 2
 c87:  v7 + u9 <= 3
 c88:  v8 + u9 <= 4
 c89:  v9 + u9 <= 5
 c90:  v10 + u9 <= 1
 c91:  v1 + u10 <= 3
 c92:  v2 + u10 <= 5
 c93:  v3 + u10 <= 6
 c94:  v4 + u10 <= 7
 c95:  v5 + u10 <= 8
 c96:  v6 + u10 <= 9
 c97:  v7 + u10 <= 4
 c98:  v8 + u10 <= 5
 c99:  v9 + u10 <= 7
 c100: v10 + u10 <= 8
Bounds
      x21 = 0
End
